
  22   10
  10   10   10   10   10   10   10   10   10   10

   0   0   0   0   0   0   0   0   0   0   0   1 2 
   4   0   0   0   0   0  10   0   0   0   0   1 3 
   2   0   0  10   0   0   0   0   0   0   0   1 4 
   1   0   0   0   0   0   0   0   0   0  10   1 5 
   6   0   0   0   0   0   0  10   0   0   0   1 6 
   9   0   0   0   0   0  10   0   0   0   0   1 7 
   1   0   0   0  10   0   0   0   0   0   0   1 8 
   8   0  10   0   0   0   0   0   0   0   0   1 9 
   9   0  10   0   0   0   0   0   0   0   0   1 10 
   5   0   0   0   0   0  10   0   0   0   0   2 19 11 
  10   0   0   0   0   0   0   0   0   0  10   1 12 
   9   0   0   0   0   0   0   0  10   0   0   2 21 13 
   3  10   0   0   0   0   0   0   0   0   0   1 14 
   5   0   0   0   0   0   0  10   0   0   0   1 15 
   2   0   0  10   0   0   0   0   0   0   0   1 16 
   3   0   0   0   0   0   0   0   0   0  10   1 17 
   4   0   0   0   0   0   0  10   0   0   0   1 18 
   8   0   0   0   0   0   0   0  10   0   0   1 20 
   8   0  10   0   0   0   0   0   0   0   0   1 20 
   3   0   0   0   0   0  10   0   0   0   0   1 22
   3  10   0   0   0   0   0   0   0   0   0   1 22
   0   0   0   0   0   0   0   0   0   0   0   0 
